[97mSOLVER - Computes the weighted upper irredundant/domination number.
Made in 2018-2020 by Daniel Severin.
[37m[33mStatistics:
  |V| = 52, |E| = 201 (density = 15.1584%).
  Initial bounds:  LB = 0, UB = 52.
Diameter of G: 4
[37m[97mClassic UB = w(V) - min { w(N[v] - {u}) : v in V, u in N[v] } = 48
[37mNew bounds:  LB = 25, UB = 46.
[31mSolution (card = 25, weight = 25):
  private of 13 is 13
  private of 39 is 39
  private of 43 is 43
  private of 38 is 38
  private of 42 is 42
  private of 46 is 46
  private of 36 is 36
  private of 37 is 37
  private of 45 is 45
  private of 40 is 40
  private of 41 is 41
  private of 47 is 47
  private of 44 is 44
  private of 12 is 12
  private of 16 is 16
  private of 17 is 17
  private of 21 is 21
  private of 50 is 50
  private of 15 is 15
  private of 18 is 18
  private of 22 is 22
  private of 19 is 19
  private of 14 is 14
  private of 23 is 23
  private of 20 is 20
[37m[96mTime elapsed for heuristic = 0.06 sec.
[37m[35m
Complement of the transformed graph:
  |V| = 454, |E| = 68555 (density = 66.6676%).
[37m[97mModel has 2704 variables and 1544 constraints.
[37mTried aggregator 1 time.
MIP Presolve eliminated 719 rows and 16 columns.
MIP Presolve modified 825 coefficients.
Reduced MIP has 825 rows, 438 columns, and 21175 nonzeros.
Reduced MIP has 438 binaries, 0 generals, 0 SOSs, and 0 indicators.
Presolve time = 0.05 sec. (75.25 ticks)
Tried aggregator 1 time.
MIP Presolve eliminated 0 rows and 15 columns.
Reduced MIP has 825 rows, 423 columns, and 20640 nonzeros.
Reduced MIP has 423 binaries, 0 generals, 0 SOSs, and 0 indicators.
Presolve time = 0.01 sec. (20.46 ticks)
Clique table members: 825.
MIP emphasis: balance optimality and feasibility.
MIP search method: dynamic search.
Parallel mode: none, using 1 thread.
Root relaxation solution time = 0.01 sec. (20.58 ticks)

        Nodes                                         Cuts/
   Node  Left     Objective  IInf  Best Integer    Best Bound    ItCnt     Gap

      0     0        cutoff                                        335         

Root node processing (before b&c):
  Real time             =    0.08 sec. (119.55 ticks)
Sequential b&c:
  Real time             =    0.00 sec. (0.00 ticks)
                          ------------
Total (root+branch&cut) =    0.08 sec. (119.55 ticks)
Number of nodes evaluated: 0
[92mInfeasible. Therefore, the solution given by the heuristic is optimal!
[37m[31mSolution (card = 25, weight = 25):
  private of 13 is 13
  private of 39 is 39
  private of 43 is 43
  private of 38 is 38
  private of 42 is 42
  private of 46 is 46
  private of 36 is 36
  private of 37 is 37
  private of 45 is 45
  private of 40 is 40
  private of 41 is 41
  private of 47 is 47
  private of 44 is 44
  private of 12 is 12
  private of 16 is 16
  private of 17 is 17
  private of 21 is 21
  private of 50 is 50
  private of 15 is 15
  private of 18 is 18
  private of 22 is 22
  private of 19 is 19
  private of 14 is 14
  private of 23 is 23
  private of 20 is 20
[37m[96mTime elapsed during optimization = 0.09 sec.
[37mCoq certificate written in certificate.v
Reading graph from output.dimacs...OK
Searching for a single maximum size clique...
  2/454 (max  1)  0.00 s  (0.00 s/round)
 11/454 (max  2)  0.00 s  (0.00 s/round)
 19/454 (max  3)  0.00 s  (0.00 s/round)
 30/454 (max  4)  0.00 s  (0.00 s/round)
 44/454 (max  5)  0.00 s  (0.00 s/round)
 51/454 (max  6)  0.00 s  (0.00 s/round)
 61/454 (max  7)  0.00 s  (0.00 s/round)
 76/454 (max  8)  0.00 s  (0.00 s/round)
 90/454 (max  9)  0.00 s  (0.00 s/round)
117/454 (max 10)  0.01 s  (0.00 s/round)
140/454 (max 11)  0.01 s  (0.00 s/round)
170/454 (max 12)  0.06 s  (0.00 s/round)
212/454 (max 13)  0.12 s  (0.00 s/round)
274/454 (max 13)  0.22 s  (0.00 s/round)
275/454 (max 14)  0.23 s  (0.00 s/round)
286/454 (max 14)  0.36 s  (0.01 s/round)
287/454 (max 15)  0.36 s  (0.00 s/round)
300/454 (max 15)  0.52 s  (0.01 s/round)
301/454 (max 16)  0.53 s  (0.00 s/round)
337/454 (max 16)  0.63 s  (0.00 s/round)
343/454 (max 16)  0.75 s  (0.02 s/round)
344/454 (max 16)  0.88 s  (0.13 s/round)
345/454 (max 16)  1.01 s  (0.13 s/round)
349/454 (max 16)  1.12 s  (0.03 s/round)
351/454 (max 16)  1.34 s  (0.11 s/round)
352/454 (max 16)  1.52 s  (0.18 s/round)
353/454 (max 16)  1.70 s  (0.18 s/round)
357/454 (max 17)  1.84 s  (0.03 s/round)
380/454 (max 18)  1.84 s  (0.00 s/round)
393/454 (max 19)  1.84 s  (0.00 s/round)
407/454 (max 20)  1.84 s  (0.00 s/round)
450/454 (max 21)  1.84 s  (0.00 s/round)
451/454 (max 22)  1.84 s  (0.00 s/round)
452/454 (max 23)  1.84 s  (0.00 s/round)
453/454 (max 24)  1.84 s  (0.00 s/round)
454/454 (max 25)  1.84 s  (0.00 s/round)
